p cnf 135 813
1 2 3 0
-1 -2 0
-1 -3 0
-2 -3 0
4 5 6 0
-4 -5 0
-4 -6 0
-5 -6 0
7 8 9 0
-7 -8 0
-7 -9 0
-8 -9 0
10 11 12 0
-10 -11 0
-10 -12 0
-11 -12 0
13 14 15 0
-13 -14 0
-13 -15 0
-14 -15 0
16 17 18 0
-16 -17 0
-16 -18 0
-17 -18 0
19 20 21 0
-19 -20 0
-19 -21 0
-20 -21 0
22 23 24 0
-22 -23 0
-22 -24 0
-23 -24 0
25 26 27 0
-25 -26 0
-25 -27 0
-26 -27 0
28 29 30 0
-28 -29 0
-28 -30 0
-29 -30 0
31 32 33 0
-31 -32 0
-31 -33 0
-32 -33 0
34 35 36 0
-34 -35 0
-34 -36 0
-35 -36 0
37 38 39 0
-37 -38 0
-37 -39 0
-38 -39 0
40 41 42 0
-40 -41 0
-40 -42 0
-41 -42 0
43 44 45 0
-43 -44 0
-43 -45 0
-44 -45 0
46 47 48 0
-46 -47 0
-46 -48 0
-47 -48 0
49 50 51 0
-49 -50 0
-49 -51 0
-50 -51 0
52 53 54 0
-52 -53 0
-52 -54 0
-53 -54 0
55 56 57 0
-55 -56 0
-55 -57 0
-56 -57 0
58 59 60 0
-58 -59 0
-58 -60 0
-59 -60 0
61 62 63 0
-61 -62 0
-61 -63 0
-62 -63 0
64 65 66 0
-64 -65 0
-64 -66 0
-65 -66 0
67 68 69 0
-67 -68 0
-67 -69 0
-68 -69 0
70 71 72 0
-70 -71 0
-70 -72 0
-71 -72 0
73 74 75 0
-73 -74 0
-73 -75 0
-74 -75 0
76 77 78 0
-76 -77 0
-76 -78 0
-77 -78 0
79 80 81 0
-79 -80 0
-79 -81 0
-80 -81 0
82 83 84 0
-82 -83 0
-82 -84 0
-83 -84 0
85 86 87 0
-85 -86 0
-85 -87 0
-86 -87 0
88 89 90 0
-88 -89 0
-88 -90 0
-89 -90 0
91 92 93 0
-91 -92 0
-91 -93 0
-92 -93 0
94 95 96 0
-94 -95 0
-94 -96 0
-95 -96 0
97 98 99 0
-97 -98 0
-97 -99 0
-98 -99 0
100 101 102 0
-100 -101 0
-100 -102 0
-101 -102 0
103 104 105 0
-103 -104 0
-103 -105 0
-104 -105 0
106 107 108 0
-106 -107 0
-106 -108 0
-107 -108 0
109 110 111 0
-109 -110 0
-109 -111 0
-110 -111 0
112 113 114 0
-112 -113 0
-112 -114 0
-113 -114 0
115 116 117 0
-115 -116 0
-115 -117 0
-116 -117 0
118 119 120 0
-118 -119 0
-118 -120 0
-119 -120 0
121 122 123 0
-121 -122 0
-121 -123 0
-122 -123 0
124 125 126 0
-124 -125 0
-124 -126 0
-125 -126 0
127 128 129 0
-127 -128 0
-127 -129 0
-128 -129 0
130 131 132 0
-130 -131 0
-130 -132 0
-131 -132 0
133 134 135 0
-133 -134 0
-133 -135 0
-134 -135 0
1 4 7 28 31 52 0
2 5 8 29 32 53 0
3 6 9 30 33 54 0
1 4 10 28 34 55 0
2 5 11 29 35 56 0
3 6 12 30 36 57 0
1 4 13 28 37 58 0
2 5 14 29 38 59 0
3 6 15 30 39 60 0
1 4 16 28 40 61 0
2 5 17 29 41 62 0
3 6 18 30 42 63 0
1 4 19 28 43 64 0
2 5 20 29 44 65 0
3 6 21 30 45 66 0
1 4 22 28 46 67 0
2 5 23 29 47 68 0
3 6 24 30 48 69 0
1 4 25 28 49 70 0
2 5 26 29 50 71 0
3 6 27 30 51 72 0
1 7 10 31 34 73 0
2 8 11 32 35 74 0
3 9 12 33 36 75 0
1 7 13 31 37 76 0
2 8 14 32 38 77 0
3 9 15 33 39 78 0
1 7 16 31 40 79 0
2 8 17 32 41 80 0
3 9 18 33 42 81 0
1 7 19 31 43 82 0
2 8 20 32 44 83 0
3 9 21 33 45 84 0
1 7 22 31 46 85 0
2 8 23 32 47 86 0
3 9 24 33 48 87 0
1 7 25 31 49 88 0
2 8 26 32 50 89 0
3 9 27 33 51 90 0
1 10 13 34 37 91 0
2 11 14 35 38 92 0
3 12 15 36 39 93 0
1 10 16 34 40 94 0
2 11 17 35 41 95 0
3 12 18 36 42 96 0
1 10 19 34 43 97 0
2 11 20 35 44 98 0
3 12 21 36 45 99 0
1 10 22 34 46 100 0
2 11 23 35 47 101 0
3 12 24 36 48 102 0
1 10 25 34 49 103 0
2 11 26 35 50 104 0
3 12 27 36 51 105 0
1 13 16 37 40 106 0
2 14 17 38 41 107 0
3 15 18 39 42 108 0
1 13 19 37 43 109 0
2 14 20 38 44 110 0
3 15 21 39 45 111 0
1 13 22 37 46 112 0
2 14 23 38 47 113 0
3 15 24 39 48 114 0
1 13 25 37 49 115 0
2 14 26 38 50 116 0
3 15 27 39 51 117 0
1 16 19 40 43 118 0
2 17 20 41 44 119 0
3 18 21 42 45 120 0
1 16 22 40 46 121 0
2 17 23 41 47 122 0
3 18 24 42 48 123 0
1 16 25 40 49 124 0
2 17 26 41 50 125 0
3 18 27 42 51 126 0
1 19 22 43 46 127 0
2 20 23 44 47 128 0
3 21 24 45 48 129 0
1 19 25 43 49 130 0
2 20 26 44 50 131 0
3 21 27 45 51 132 0
1 22 25 46 49 133 0
2 23 26 47 50 134 0
3 24 27 48 51 135 0
4 7 10 52 55 73 0
5 8 11 53 56 74 0
6 9 12 54 57 75 0
4 7 13 52 58 76 0
5 8 14 53 59 77 0
6 9 15 54 60 78 0
4 7 16 52 61 79 0
5 8 17 53 62 80 0
6 9 18 54 63 81 0
4 7 19 52 64 82 0
5 8 20 53 65 83 0
6 9 21 54 66 84 0
4 7 22 52 67 85 0
5 8 23 53 68 86 0
6 9 24 54 69 87 0
4 7 25 52 70 88 0
5 8 26 53 71 89 0
6 9 27 54 72 90 0
4 10 13 55 58 91 0
5 11 14 56 59 92 0
6 12 15 57 60 93 0
4 10 16 55 61 94 0
5 11 17 56 62 95 0
6 12 18 57 63 96 0
4 10 19 55 64 97 0
5 11 20 56 65 98 0
6 12 21 57 66 99 0
4 10 22 55 67 100 0
5 11 23 56 68 101 0
6 12 24 57 69 102 0
4 10 25 55 70 103 0
5 11 26 56 71 104 0
6 12 27 57 72 105 0
4 13 16 58 61 106 0
5 14 17 59 62 107 0
6 15 18 60 63 108 0
4 13 19 58 64 109 0
5 14 20 59 65 110 0
6 15 21 60 66 111 0
4 13 22 58 67 112 0
5 14 23 59 68 113 0
6 15 24 60 69 114 0
4 13 25 58 70 115 0
5 14 26 59 71 116 0
6 15 27 60 72 117 0
4 16 19 61 64 118 0
5 17 20 62 65 119 0
6 18 21 63 66 120 0
4 16 22 61 67 121 0
5 17 23 62 68 122 0
6 18 24 63 69 123 0
4 16 25 61 70 124 0
5 17 26 62 71 125 0
6 18 27 63 72 126 0
4 19 22 64 67 127 0
5 20 23 65 68 128 0
6 21 24 66 69 129 0
4 19 25 64 70 130 0
5 20 26 65 71 131 0
6 21 27 66 72 132 0
4 22 25 67 70 133 0
5 23 26 68 71 134 0
6 24 27 69 72 135 0
7 10 13 73 76 91 0
8 11 14 74 77 92 0
9 12 15 75 78 93 0
7 10 16 73 79 94 0
8 11 17 74 80 95 0
9 12 18 75 81 96 0
7 10 19 73 82 97 0
8 11 20 74 83 98 0
9 12 21 75 84 99 0
7 10 22 73 85 100 0
8 11 23 74 86 101 0
9 12 24 75 87 102 0
7 10 25 73 88 103 0
8 11 26 74 89 104 0
9 12 27 75 90 105 0
7 13 16 76 79 106 0
8 14 17 77 80 107 0
9 15 18 78 81 108 0
7 13 19 76 82 109 0
8 14 20 77 83 110 0
9 15 21 78 84 111 0
7 13 22 76 85 112 0
8 14 23 77 86 113 0
9 15 24 78 87 114 0
7 13 25 76 88 115 0
8 14 26 77 89 116 0
9 15 27 78 90 117 0
7 16 19 79 82 118 0
8 17 20 80 83 119 0
9 18 21 81 84 120 0
7 16 22 79 85 121 0
8 17 23 80 86 122 0
9 18 24 81 87 123 0
7 16 25 79 88 124 0
8 17 26 80 89 125 0
9 18 27 81 90 126 0
7 19 22 82 85 127 0
8 20 23 83 86 128 0
9 21 24 84 87 129 0
7 19 25 82 88 130 0
8 20 26 83 89 131 0
9 21 27 84 90 132 0
7 22 25 85 88 133 0
8 23 26 86 89 134 0
9 24 27 87 90 135 0
10 13 16 91 94 106 0
11 14 17 92 95 107 0
12 15 18 93 96 108 0
10 13 19 91 97 109 0
11 14 20 92 98 110 0
12 15 21 93 99 111 0
10 13 22 91 100 112 0
11 14 23 92 101 113 0
12 15 24 93 102 114 0
10 13 25 91 103 115 0
11 14 26 92 104 116 0
12 15 27 93 105 117 0
10 16 19 94 97 118 0
11 17 20 95 98 119 0
12 18 21 96 99 120 0
10 16 22 94 100 121 0
11 17 23 95 101 122 0
12 18 24 96 102 123 0
10 16 25 94 103 124 0
11 17 26 95 104 125 0
12 18 27 96 105 126 0
10 19 22 97 100 127 0
11 20 23 98 101 128 0
12 21 24 99 102 129 0
10 19 25 97 103 130 0
11 20 26 98 104 131 0
12 21 27 99 105 132 0
10 22 25 100 103 133 0
11 23 26 101 104 134 0
12 24 27 102 105 135 0
13 16 19 106 109 118 0
14 17 20 107 110 119 0
15 18 21 108 111 120 0
13 16 22 106 112 121 0
14 17 23 107 113 122 0
15 18 24 108 114 123 0
13 16 25 106 115 124 0
14 17 26 107 116 125 0
15 18 27 108 117 126 0
13 19 22 109 112 127 0
14 20 23 110 113 128 0
15 21 24 111 114 129 0
13 19 25 109 115 130 0
14 20 26 110 116 131 0
15 21 27 111 117 132 0
13 22 25 112 115 133 0
14 23 26 113 116 134 0
15 24 27 114 117 135 0
16 19 22 118 121 127 0
17 20 23 119 122 128 0
18 21 24 120 123 129 0
16 19 25 118 124 130 0
17 20 26 119 125 131 0
18 21 27 120 126 132 0
16 22 25 121 124 133 0
17 23 26 122 125 134 0
18 24 27 123 126 135 0
19 22 25 127 130 133 0
20 23 26 128 131 134 0
21 24 27 129 132 135 0
28 31 34 52 55 73 0
29 32 35 53 56 74 0
30 33 36 54 57 75 0
28 31 37 52 58 76 0
29 32 38 53 59 77 0
30 33 39 54 60 78 0
28 31 40 52 61 79 0
29 32 41 53 62 80 0
30 33 42 54 63 81 0
28 31 43 52 64 82 0
29 32 44 53 65 83 0
30 33 45 54 66 84 0
28 31 46 52 67 85 0
29 32 47 53 68 86 0
30 33 48 54 69 87 0
28 31 49 52 70 88 0
29 32 50 53 71 89 0
30 33 51 54 72 90 0
28 34 37 55 58 91 0
29 35 38 56 59 92 0
30 36 39 57 60 93 0
28 34 40 55 61 94 0
29 35 41 56 62 95 0
30 36 42 57 63 96 0
28 34 43 55 64 97 0
29 35 44 56 65 98 0
30 36 45 57 66 99 0
28 34 46 55 67 100 0
29 35 47 56 68 101 0
30 36 48 57 69 102 0
28 34 49 55 70 103 0
29 35 50 56 71 104 0
30 36 51 57 72 105 0
28 37 40 58 61 106 0
29 38 41 59 62 107 0
30 39 42 60 63 108 0
28 37 43 58 64 109 0
29 38 44 59 65 110 0
30 39 45 60 66 111 0
28 37 46 58 67 112 0
29 38 47 59 68 113 0
30 39 48 60 69 114 0
28 37 49 58 70 115 0
29 38 50 59 71 116 0
30 39 51 60 72 117 0
28 40 43 61 64 118 0
29 41 44 62 65 119 0
30 42 45 63 66 120 0
28 40 46 61 67 121 0
29 41 47 62 68 122 0
30 42 48 63 69 123 0
28 40 49 61 70 124 0
29 41 50 62 71 125 0
30 42 51 63 72 126 0
28 43 46 64 67 127 0
29 44 47 65 68 128 0
30 45 48 66 69 129 0
28 43 49 64 70 130 0
29 44 50 65 71 131 0
30 45 51 66 72 132 0
28 46 49 67 70 133 0
29 47 50 68 71 134 0
30 48 51 69 72 135 0
31 34 37 73 76 91 0
32 35 38 74 77 92 0
33 36 39 75 78 93 0
31 34 40 73 79 94 0
32 35 41 74 80 95 0
33 36 42 75 81 96 0
31 34 43 73 82 97 0
32 35 44 74 83 98 0
33 36 45 75 84 99 0
31 34 46 73 85 100 0
32 35 47 74 86 101 0
33 36 48 75 87 102 0
31 34 49 73 88 103 0
32 35 50 74 89 104 0
33 36 51 75 90 105 0
31 37 40 76 79 106 0
32 38 41 77 80 107 0
33 39 42 78 81 108 0
31 37 43 76 82 109 0
32 38 44 77 83 110 0
33 39 45 78 84 111 0
31 37 46 76 85 112 0
32 38 47 77 86 113 0
33 39 48 78 87 114 0
31 37 49 76 88 115 0
32 38 50 77 89 116 0
33 39 51 78 90 117 0
31 40 43 79 82 118 0
32 41 44 80 83 119 0
33 42 45 81 84 120 0
31 40 46 79 85 121 0
32 41 47 80 86 122 0
33 42 48 81 87 123 0
31 40 49 79 88 124 0
32 41 50 80 89 125 0
33 42 51 81 90 126 0
31 43 46 82 85 127 0
32 44 47 83 86 128 0
33 45 48 84 87 129 0
31 43 49 82 88 130 0
32 44 50 83 89 131 0
33 45 51 84 90 132 0
31 46 49 85 88 133 0
32 47 50 86 89 134 0
33 48 51 87 90 135 0
34 37 40 91 94 106 0
35 38 41 92 95 107 0
36 39 42 93 96 108 0
34 37 43 91 97 109 0
35 38 44 92 98 110 0
36 39 45 93 99 111 0
34 37 46 91 100 112 0
35 38 47 92 101 113 0
36 39 48 93 102 114 0
34 37 49 91 103 115 0
35 38 50 92 104 116 0
36 39 51 93 105 117 0
34 40 43 94 97 118 0
35 41 44 95 98 119 0
36 42 45 96 99 120 0
34 40 46 94 100 121 0
35 41 47 95 101 122 0
36 42 48 96 102 123 0
34 40 49 94 103 124 0
35 41 50 95 104 125 0
36 42 51 96 105 126 0
34 43 46 97 100 127 0
35 44 47 98 101 128 0
36 45 48 99 102 129 0
34 43 49 97 103 130 0
35 44 50 98 104 131 0
36 45 51 99 105 132 0
34 46 49 100 103 133 0
35 47 50 101 104 134 0
36 48 51 102 105 135 0
37 40 43 106 109 118 0
38 41 44 107 110 119 0
39 42 45 108 111 120 0
37 40 46 106 112 121 0
38 41 47 107 113 122 0
39 42 48 108 114 123 0
37 40 49 106 115 124 0
38 41 50 107 116 125 0
39 42 51 108 117 126 0
37 43 46 109 112 127 0
38 44 47 110 113 128 0
39 45 48 111 114 129 0
37 43 49 109 115 130 0
38 44 50 110 116 131 0
39 45 51 111 117 132 0
37 46 49 112 115 133 0
38 47 50 113 116 134 0
39 48 51 114 117 135 0
40 43 46 118 121 127 0
41 44 47 119 122 128 0
42 45 48 120 123 129 0
40 43 49 118 124 130 0
41 44 50 119 125 131 0
42 45 51 120 126 132 0
40 46 49 121 124 133 0
41 47 50 122 125 134 0
42 48 51 123 126 135 0
43 46 49 127 130 133 0
44 47 50 128 131 134 0
45 48 51 129 132 135 0
52 55 58 73 76 91 0
53 56 59 74 77 92 0
54 57 60 75 78 93 0
52 55 61 73 79 94 0
53 56 62 74 80 95 0
54 57 63 75 81 96 0
52 55 64 73 82 97 0
53 56 65 74 83 98 0
54 57 66 75 84 99 0
52 55 67 73 85 100 0
53 56 68 74 86 101 0
54 57 69 75 87 102 0
52 55 70 73 88 103 0
53 56 71 74 89 104 0
54 57 72 75 90 105 0
52 58 61 76 79 106 0
53 59 62 77 80 107 0
54 60 63 78 81 108 0
52 58 64 76 82 109 0
53 59 65 77 83 110 0
54 60 66 78 84 111 0
52 58 67 76 85 112 0
53 59 68 77 86 113 0
54 60 69 78 87 114 0
52 58 70 76 88 115 0
53 59 71 77 89 116 0
54 60 72 78 90 117 0
52 61 64 79 82 118 0
53 62 65 80 83 119 0
54 63 66 81 84 120 0
52 61 67 79 85 121 0
53 62 68 80 86 122 0
54 63 69 81 87 123 0
52 61 70 79 88 124 0
53 62 71 80 89 125 0
54 63 72 81 90 126 0
52 64 67 82 85 127 0
53 65 68 83 86 128 0
54 66 69 84 87 129 0
52 64 70 82 88 130 0
53 65 71 83 89 131 0
54 66 72 84 90 132 0
52 67 70 85 88 133 0
53 68 71 86 89 134 0
54 69 72 87 90 135 0
55 58 61 91 94 106 0
56 59 62 92 95 107 0
57 60 63 93 96 108 0
55 58 64 91 97 109 0
56 59 65 92 98 110 0
57 60 66 93 99 111 0
55 58 67 91 100 112 0
56 59 68 92 101 113 0
57 60 69 93 102 114 0
55 58 70 91 103 115 0
56 59 71 92 104 116 0
57 60 72 93 105 117 0
55 61 64 94 97 118 0
56 62 65 95 98 119 0
57 63 66 96 99 120 0
55 61 67 94 100 121 0
56 62 68 95 101 122 0
57 63 69 96 102 123 0
55 61 70 94 103 124 0
56 62 71 95 104 125 0
57 63 72 96 105 126 0
55 64 67 97 100 127 0
56 65 68 98 101 128 0
57 66 69 99 102 129 0
55 64 70 97 103 130 0
56 65 71 98 104 131 0
57 66 72 99 105 132 0
55 67 70 100 103 133 0
56 68 71 101 104 134 0
57 69 72 102 105 135 0
58 61 64 106 109 118 0
59 62 65 107 110 119 0
60 63 66 108 111 120 0
58 61 67 106 112 121 0
59 62 68 107 113 122 0
60 63 69 108 114 123 0
58 61 70 106 115 124 0
59 62 71 107 116 125 0
60 63 72 108 117 126 0
58 64 67 109 112 127 0
59 65 68 110 113 128 0
60 66 69 111 114 129 0
58 64 70 109 115 130 0
59 65 71 110 116 131 0
60 66 72 111 117 132 0
58 67 70 112 115 133 0
59 68 71 113 116 134 0
60 69 72 114 117 135 0
61 64 67 118 121 127 0
62 65 68 119 122 128 0
63 66 69 120 123 129 0
61 64 70 118 124 130 0
62 65 71 119 125 131 0
63 66 72 120 126 132 0
61 67 70 121 124 133 0
62 68 71 122 125 134 0
63 69 72 123 126 135 0
64 67 70 127 130 133 0
65 68 71 128 131 134 0
66 69 72 129 132 135 0
73 76 79 91 94 106 0
74 77 80 92 95 107 0
75 78 81 93 96 108 0
73 76 82 91 97 109 0
74 77 83 92 98 110 0
75 78 84 93 99 111 0
73 76 85 91 100 112 0
74 77 86 92 101 113 0
75 78 87 93 102 114 0
73 76 88 91 103 115 0
74 77 89 92 104 116 0
75 78 90 93 105 117 0
73 79 82 94 97 118 0
74 80 83 95 98 119 0
75 81 84 96 99 120 0
73 79 85 94 100 121 0
74 80 86 95 101 122 0
75 81 87 96 102 123 0
73 79 88 94 103 124 0
74 80 89 95 104 125 0
75 81 90 96 105 126 0
73 82 85 97 100 127 0
74 83 86 98 101 128 0
75 84 87 99 102 129 0
73 82 88 97 103 130 0
74 83 89 98 104 131 0
75 84 90 99 105 132 0
73 85 88 100 103 133 0
74 86 89 101 104 134 0
75 87 90 102 105 135 0
76 79 82 106 109 118 0
77 80 83 107 110 119 0
78 81 84 108 111 120 0
76 79 85 106 112 121 0
77 80 86 107 113 122 0
78 81 87 108 114 123 0
76 79 88 106 115 124 0
77 80 89 107 116 125 0
78 81 90 108 117 126 0
76 82 85 109 112 127 0
77 83 86 110 113 128 0
78 84 87 111 114 129 0
76 82 88 109 115 130 0
77 83 89 110 116 131 0
78 84 90 111 117 132 0
76 85 88 112 115 133 0
77 86 89 113 116 134 0
78 87 90 114 117 135 0
79 82 85 118 121 127 0
80 83 86 119 122 128 0
81 84 87 120 123 129 0
79 82 88 118 124 130 0
80 83 89 119 125 131 0
81 84 90 120 126 132 0
79 85 88 121 124 133 0
80 86 89 122 125 134 0
81 87 90 123 126 135 0
82 85 88 127 130 133 0
83 86 89 128 131 134 0
84 87 90 129 132 135 0
91 94 97 106 109 118 0
92 95 98 107 110 119 0
93 96 99 108 111 120 0
91 94 100 106 112 121 0
92 95 101 107 113 122 0
93 96 102 108 114 123 0
91 94 103 106 115 124 0
92 95 104 107 116 125 0
93 96 105 108 117 126 0
91 97 100 109 112 127 0
92 98 101 110 113 128 0
93 99 102 111 114 129 0
91 97 103 109 115 130 0
92 98 104 110 116 131 0
93 99 105 111 117 132 0
91 100 103 112 115 133 0
92 101 104 113 116 134 0
93 102 105 114 117 135 0
94 97 100 118 121 127 0
95 98 101 119 122 128 0
96 99 102 120 123 129 0
94 97 103 118 124 130 0
95 98 104 119 125 131 0
96 99 105 120 126 132 0
94 100 103 121 124 133 0
95 101 104 122 125 134 0
96 102 105 123 126 135 0
97 100 103 127 130 133 0
98 101 104 128 131 134 0
99 102 105 129 132 135 0
106 109 112 118 121 127 0
107 110 113 119 122 128 0
108 111 114 120 123 129 0
106 109 115 118 124 130 0
107 110 116 119 125 131 0
108 111 117 120 126 132 0
106 112 115 121 124 133 0
107 113 116 122 125 134 0
108 114 117 123 126 135 0
109 112 115 127 130 133 0
110 113 116 128 131 134 0
111 114 117 129 132 135 0
118 121 124 127 130 133 0
119 122 125 128 131 134 0
120 123 126 129 132 135 0
-2 0
-3 0
-6 0
